
===== New CPLEX run =====
Instance: /home/yorig/tuner/mpils-tests/instances/miplib/medium-1/mushroom-best.mps
Config: /scratch/yorig/mpils-results-grid-ticks-10000-2proc-no-mip-start/medium-1/2proc/seed-3/7_mushroom-best_seed-3_20260501_224031/expansion/config_param_CPXPARAM_Preprocessing_Dual_1_iter_3.prm
========================

Selected objective sense:  MINIMIZE
Selected objective  name:  obj
Selected RHS        name:  rhs
Selected bound      name:  bnd
Version identifier: 22.1.2.0 | 2024-11-26 | 0edbb82fd
CPXPARAM_Preprocessing_Dual                      1
CPXPARAM_Threads                                 8
CPXPARAM_Parallel                                1
CPXPARAM_MIP_Cuts_Cliques                        -1
CPXPARAM_MIP_Cuts_Covers                         -1
CPXPARAM_MIP_Strategy_VariableSelect             2
CPXPARAM_MIP_Strategy_PresolveNode               -1
CPXPARAM_MIP_Cuts_Implied                        1
CPXPARAM_MIP_Limits_GomoryCand                   800
CPXPARAM_MIP_Cuts_Gomory                         -1
CPXPARAM_MIP_Cuts_PathCut                        -1
CPXPARAM_MIP_Cuts_MIRCut                         -1
CPXPARAM_MIP_Cuts_Disjunctive                    2
CPXPARAM_Emphasis_MIP                            3
CPXPARAM_DetTimeLimit                            10000
Found incumbent of value 8124.895732 after 0.00 sec. (1.54 ticks)
Tried aggregator 2 times.
MIP Presolve eliminated 88 rows and 0 columns.
MIP Presolve modified 8124 coefficients.
Aggregator did 4 substitutions.
Reduced MIP has 8488 rows, 8464 columns, and 180316 nonzeros.
Reduced MIP has 8237 binaries, 114 generals, 0 SOSs, and 0 indicators.
Presolve time = 0.05 sec. (69.18 ticks)
Probing time = 0.06 sec. (2.69 ticks)
Tried aggregator 2 times.
Detecting symmetries...
MIP Presolve modified 6649 coefficients.
Aggregator did 44 substitutions.
Reduced MIP has 8444 rows, 8420 columns, and 180228 nonzeros.
Reduced MIP has 8237 binaries, 183 generals, 0 SOSs, and 0 indicators.
Presolve time = 0.08 sec. (102.88 ticks)
Probing time = 0.17 sec. (2.82 ticks)
MIP emphasis: best bound.
MIP search method: dynamic search.
Parallel mode: deterministic, using up to 8 threads.
Root relaxation solution time = 0.07 sec. (112.64 ticks)

        Nodes                                         Cuts/
   Node  Left     Objective  IInf  Best Integer    Best Bound    ItCnt     Gap

*     0+    0                         8124.8957        0.0000           100.00%
*     0+    0                         3916.5463        0.0000           100.00%
*     0+    0                         3916.5456        0.0000           100.00%
*     0+    0                         3916.5450        0.0000           100.00%
      0     0        0.0000    27     3916.5450        0.0000      786  100.00%
*     0+    0                            3.1580        0.0000           100.00%
*     0+    0                            0.1027        0.0000            99.99%
*     0+    0                            0.1027        0.0000            99.99%
*     0+    0                            0.0632        0.0000            99.98%
*     0+    0                            0.0553        0.0000            99.98%
      0     0  -1.00000e+75     0        0.0553        0.0000      786   99.98%

Repeating presolve.
Tried aggregator 1 time.
MIP Presolve eliminated 98 rows and 8128 columns.
MIP Presolve modified 8124 coefficients.
Reduced MIP has 8346 rows, 292 columns, and 170180 nonzeros.
Reduced MIP has 111 binaries, 181 generals, 0 SOSs, and 0 indicators.
Presolve time = 0.04 sec. (61.97 ticks)
Probing time = 0.12 sec. (2.09 ticks)
Tried aggregator 1 time.
Detecting symmetries...
Reduced MIP has 8346 rows, 292 columns, and 170180 nonzeros.
Reduced MIP has 111 binaries, 181 generals, 0 SOSs, and 0 indicators.
Presolve time = 0.04 sec. (46.86 ticks)
Represolve time = 0.20 sec. (130.99 ticks)
Probing time = 0.07 sec. (2.09 ticks)
MIP emphasis: best bound.
MIP search method: dynamic search.
Parallel mode: deterministic, using up to 8 threads.
Root relaxation solution time = 0.06 sec. (107.20 ticks)

        Nodes                                         Cuts/
   Node  Left     Objective  IInf  Best Integer    Best Bound    ItCnt     Gap

*     0+    0                            0.0553        0.0000            99.98%
      0     0        0.0127    10        0.0553        0.0127     2463   77.08%
      0     2        0.0127    10        0.0553        0.0127     2463   77.08%
Elapsed time = 3.27 sec. (2111.29 ticks, tree = 0.02 MB, solutions = 8)
      1     3        0.0185    38        0.0553        0.0127     2613   77.07%
      2     4        0.0253    26        0.0553        0.0127     2770   77.07%
      7     9        0.0380     4        0.0553        0.0174     3316   68.48%
     21    14        0.0301     9        0.0553        0.0183     3699   66.90%
     43    13        0.0348    11        0.0553        0.0190     3619   65.62%
     63    58        0.0340     9        0.0553        0.0197     7057   64.43%
     84    38        0.0390    27        0.0553        0.0197     5898   64.43%
    108    94        0.0387    49        0.0553        0.0198    10491   64.24%
    164   100        0.0380    12        0.0553        0.0222    10731   59.93%
    372   297        0.0364    31        0.0553        0.0320    27924   42.23%
Elapsed time = 7.08 sec. (6680.19 ticks, tree = 0.57 MB, solutions = 8)
    675   506        0.0405    28        0.0553        0.0345    41372   37.67%
    993   761        0.0427     6        0.0553        0.0365    57012   34.09%
   1323  1036        0.0411    10        0.0553        0.0384    75116   30.66%

Implied bound cuts applied:  0
Disjunctive cuts applied:  0
Cone linearizations applied:  0

Root node processing (before b&c):
  Real time             =    2.42 sec. (2103.39 ticks)
Parallel b&c, 8 threads:
  Real time             =    8.80 sec. (7907.57 ticks)
  Sync time (average)   =    2.43 sec.
  Wait time (average)   =    0.00 sec.
                          ------------
Total (root+branch&cut) =   11.22 sec. (10010.97 ticks)
Gap: 28.41%
Upper bound: 0.0553338
Lower bound: 0.0396125
End of CPLEX run. Time: 11.2235 seconds

===== New CPLEX run =====
Instance: /home/yorig/tuner/mpils-tests/instances/miplib/medium-1/mushroom-best.mps
Config: /scratch/yorig/mpils-results-grid-ticks-10000-2proc-no-mip-start/medium-1/2proc/seed-3/7_mushroom-best_seed-3_20260501_224031/expansion/config_param_CPXPARAM_MIP_Strategy_LBHeur_1_iter_3.prm
========================

Selected objective sense:  MINIMIZE
Selected objective  name:  obj
Selected RHS        name:  rhs
Selected bound      name:  bnd
Version identifier: 22.1.2.0 | 2024-11-26 | 0edbb82fd
CPXPARAM_Threads                                 8
CPXPARAM_Parallel                                1
CPXPARAM_MIP_Cuts_Cliques                        -1
CPXPARAM_MIP_Cuts_Covers                         -1
CPXPARAM_MIP_Strategy_VariableSelect             2
CPXPARAM_MIP_Strategy_PresolveNode               -1
CPXPARAM_MIP_Cuts_Implied                        1
CPXPARAM_MIP_Limits_GomoryCand                   800
CPXPARAM_MIP_Cuts_Gomory                         -1
CPXPARAM_MIP_Cuts_PathCut                        -1
CPXPARAM_MIP_Cuts_MIRCut                         -1
CPXPARAM_MIP_Cuts_Disjunctive                    2
CPXPARAM_Emphasis_MIP                            3
CPXPARAM_MIP_Strategy_LBHeur                     1
CPXPARAM_DetTimeLimit                            10000
Found incumbent of value 8124.895732 after 0.00 sec. (1.54 ticks)
Tried aggregator 2 times.
MIP Presolve eliminated 88 rows and 0 columns.
MIP Presolve modified 8124 coefficients.
Aggregator did 4 substitutions.
Reduced MIP has 8488 rows, 8464 columns, and 180316 nonzeros.
Reduced MIP has 8237 binaries, 114 generals, 0 SOSs, and 0 indicators.
Presolve time = 0.05 sec. (69.18 ticks)
Probing time = 0.05 sec. (2.69 ticks)
Tried aggregator 2 times.
Detecting symmetries...
MIP Presolve modified 6649 coefficients.
Aggregator did 44 substitutions.
Reduced MIP has 8444 rows, 8420 columns, and 180228 nonzeros.
Reduced MIP has 8237 binaries, 183 generals, 0 SOSs, and 0 indicators.
Presolve time = 0.08 sec. (102.88 ticks)
Probing time = 0.20 sec. (2.82 ticks)
MIP emphasis: best bound.
MIP search method: dynamic search.
Parallel mode: deterministic, using up to 8 threads.
Root relaxation solution time = 0.15 sec. (206.49 ticks)

        Nodes                                         Cuts/
   Node  Left     Objective  IInf  Best Integer    Best Bound    ItCnt     Gap

*     0+    0                         8124.8957        0.0000           100.00%
*     0+    0                         3916.5463        0.0000           100.00%
*     0+    0                         3916.5456        0.0000           100.00%
*     0+    0                         3916.5450        0.0000           100.00%
*     0+    0                         3916.0000        0.0000           100.00%
      0     0        0.0000    26     3916.0000        0.0000      406  100.00%
*     0+    0                           38.1106        0.0000           100.00%
*     0+    0                            0.0711        0.0000            99.98%
*     0+    0                            0.0632        0.0000            99.98%
      0     0  -1.00000e+75     0        0.0632        0.0000      406   99.98%

Repeating presolve.
Tried aggregator 1 time.
MIP Presolve eliminated 98 rows and 8128 columns.
MIP Presolve modified 8124 coefficients.
Reduced MIP has 8346 rows, 292 columns, and 170180 nonzeros.
Reduced MIP has 111 binaries, 181 generals, 0 SOSs, and 0 indicators.
Presolve time = 0.04 sec. (61.97 ticks)
Probing time = 0.02 sec. (2.09 ticks)
Tried aggregator 1 time.
Detecting symmetries...
Reduced MIP has 8346 rows, 292 columns, and 170180 nonzeros.
Reduced MIP has 111 binaries, 181 generals, 0 SOSs, and 0 indicators.
Presolve time = 0.04 sec. (46.86 ticks)
Represolve time = 0.11 sec. (129.23 ticks)
Probing time = 0.16 sec. (2.09 ticks)
MIP emphasis: best bound.
MIP search method: dynamic search.
Parallel mode: deterministic, using up to 8 threads.
Root relaxation solution time = 0.13 sec. (160.03 ticks)

        Nodes                                         Cuts/
   Node  Left     Objective  IInf  Best Integer    Best Bound    ItCnt     Gap

*     0+    0                            0.0632        0.0000            99.98%
      0     0        0.0127    13        0.0632        0.0127      678   79.94%
      0     2        0.0127    13        0.0632        0.0127      678   79.94%
Elapsed time = 5.44 sec. (4384.56 ticks, tree = 0.02 MB, solutions = 7)
      1     3        0.0174    11        0.0632        0.0174      891   72.42%
*     2+    2                            0.0632        0.0174            72.41%
*     2+    2                            0.0553        0.0174            68.48%
      4     3        0.0185    43        0.0553        0.0174      797   68.48%
     13    12        0.0253     6        0.0553        0.0174     1331   68.48%
     25    14        0.0380     4        0.0553        0.0190     1463   65.62%
     47    19        0.0364    12        0.0553        0.0190     1690   65.62%
     63    26        0.0374    38        0.0553        0.0222     2429   59.88%
    106    86        0.0364    24        0.0553        0.0233     6277   57.98%
    169   105        0.0364    44        0.0553        0.0238     7533   57.02%
    233   193        0.0364    11        0.0553        0.0253    12182   54.34%
    537   413        0.0427     7        0.0553        0.0358    24208   35.39%
Elapsed time = 9.33 sec. (8026.68 ticks, tree = 0.39 MB, solutions = 12)
    892   798        0.0459     9        0.0553        0.0384    43683   30.58%
   1278  1091        0.0459    10        0.0553        0.0412    59112   25.60%

Implied bound cuts applied:  0
Disjunctive cuts applied:  0
Cone linearizations applied:  0

Root node processing (before b&c):
  Real time             =    4.94 sec. (4377.02 ticks)
Parallel b&c, 8 threads:
  Real time             =    6.43 sec. (5631.32 ticks)
  Sync time (average)   =    1.89 sec.
  Wait time (average)   =    0.00 sec.
                          ------------
Total (root+branch&cut) =   11.37 sec. (10008.34 ticks)
Gap: 24.44%
Upper bound: 0.0553338
Lower bound: 0.0418109
End of CPLEX run. Time: 11.3741 seconds

===== New CPLEX run =====
Instance: /home/yorig/tuner/mpils-tests/instances/miplib/medium-1/mushroom-best.mps
Config: /scratch/yorig/mpils-results-grid-ticks-10000-2proc-no-mip-start/medium-1/2proc/seed-3/7_mushroom-best_seed-3_20260501_224031/expansion/config_param_CPXPARAM_MIP_Strategy_HeuristicFreq_-1_iter_3.prm
========================

Selected objective sense:  MINIMIZE
Selected objective  name:  obj
Selected RHS        name:  rhs
Selected bound      name:  bnd
Version identifier: 22.1.2.0 | 2024-11-26 | 0edbb82fd
CPXPARAM_Threads                                 8
CPXPARAM_Parallel                                1
CPXPARAM_MIP_Cuts_Cliques                        -1
CPXPARAM_MIP_Cuts_Covers                         -1
CPXPARAM_MIP_Strategy_VariableSelect             2
CPXPARAM_MIP_Strategy_PresolveNode               -1
CPXPARAM_MIP_Cuts_Implied                        1
CPXPARAM_MIP_Limits_GomoryCand                   800
CPXPARAM_MIP_Cuts_Gomory                         -1
CPXPARAM_MIP_Cuts_PathCut                        -1
CPXPARAM_MIP_Cuts_MIRCut                         -1
CPXPARAM_MIP_Cuts_Disjunctive                    2
CPXPARAM_Emphasis_MIP                            3
CPXPARAM_MIP_Strategy_HeuristicFreq              -1
CPXPARAM_DetTimeLimit                            10000
Tried aggregator 2 times.
MIP Presolve eliminated 88 rows and 0 columns.
MIP Presolve modified 8124 coefficients.
Aggregator did 4 substitutions.
Reduced MIP has 8488 rows, 8464 columns, and 180316 nonzeros.
Reduced MIP has 8237 binaries, 114 generals, 0 SOSs, and 0 indicators.
Presolve time = 0.05 sec. (69.18 ticks)
Probing time = 0.17 sec. (2.69 ticks)
Tried aggregator 2 times.
Detecting symmetries...
MIP Presolve modified 6649 coefficients.
Aggregator did 44 substitutions.
Reduced MIP has 8444 rows, 8420 columns, and 180228 nonzeros.
Reduced MIP has 8237 binaries, 183 generals, 0 SOSs, and 0 indicators.
Presolve time = 0.08 sec. (102.88 ticks)
Probing time = 0.24 sec. (2.27 ticks)
MIP emphasis: best bound.
MIP search method: dynamic search.
Parallel mode: deterministic, using up to 8 threads.
Root relaxation solution time = 0.19 sec. (206.49 ticks)

        Nodes                                         Cuts/
   Node  Left     Objective  IInf  Best Integer    Best Bound    ItCnt     Gap

      0     0        0.0000    26                      0.0000      406         
      0     2        0.0000    26                      0.0000      406         
Elapsed time = 1.56 sec. (700.66 ticks, tree = 0.02 MB, solutions = 0)
      1     2        0.0095    23                      0.0000      624         
      3     4        0.0174    18                      0.0000      955         
     12    12        0.0474     9                      0.0000     1593         
     18    13        0.0474    17                      0.0000     1671         
     24    22        0.0174    27                      0.0000     2151         
     29    23        0.0174    31                      0.0000     2540         
     42    32        0.0184    36                      0.0000     3702         
     58    49        0.0182    43                      0.0000     5331         
     75    53        0.0192    48                      0.0000     6173         
    181   146        0.0128    44                      0.0000    14459         
Elapsed time = 4.55 sec. (4994.21 ticks, tree = 2.41 MB, solutions = 0)
    344   270        0.0119    41                      0.0000    24591         
    509   448        0.0079    53                      0.0000    36564         
    729   559        0.0111    41                      0.0000    44506         
   1012   891        0.0111    36                      0.0001    66596         
   1216  1019        0.0032    45                      0.0016    73341         

Implied bound cuts applied:  0
Disjunctive cuts applied:  0
Cone linearizations applied:  0

Root node processing (before b&c):
  Real time             =    0.93 sec. (691.88 ticks)
Parallel b&c, 8 threads:
  Real time             =    9.96 sec. (9314.94 ticks)
  Sync time (average)   =    3.53 sec.
  Wait time (average)   =    0.00 sec.
                          ------------
Total (root+branch&cut) =   10.88 sec. (10006.82 ticks)
Gap: unavailable
Lower bound: 0.00170264
End of CPLEX run. Time: 10.885 seconds

===== New CPLEX run =====
Instance: /home/yorig/tuner/mpils-tests/instances/miplib/medium-1/mushroom-best.mps
Config: /scratch/yorig/mpils-results-grid-ticks-10000-2proc-no-mip-start/medium-1/2proc/seed-3/7_mushroom-best_seed-3_20260501_224031/expansion/config_param_CPXPARAM_MIP_Strategy_HeuristicFreq_20_iter_3.prm
========================

Selected objective sense:  MINIMIZE
Selected objective  name:  obj
Selected RHS        name:  rhs
Selected bound      name:  bnd
Version identifier: 22.1.2.0 | 2024-11-26 | 0edbb82fd
CPXPARAM_Threads                                 8
CPXPARAM_Parallel                                1
CPXPARAM_MIP_Cuts_Cliques                        -1
CPXPARAM_MIP_Cuts_Covers                         -1
CPXPARAM_MIP_Strategy_VariableSelect             2
CPXPARAM_MIP_Strategy_PresolveNode               -1
CPXPARAM_MIP_Cuts_Implied                        1
CPXPARAM_MIP_Limits_GomoryCand                   800
CPXPARAM_MIP_Cuts_Gomory                         -1
CPXPARAM_MIP_Cuts_PathCut                        -1
CPXPARAM_MIP_Cuts_MIRCut                         -1
CPXPARAM_MIP_Cuts_Disjunctive                    2
CPXPARAM_Emphasis_MIP                            3
CPXPARAM_MIP_Strategy_HeuristicFreq              20
CPXPARAM_DetTimeLimit                            10000
Found incumbent of value 8124.895732 after 0.00 sec. (1.54 ticks)
Tried aggregator 2 times.
MIP Presolve eliminated 88 rows and 0 columns.
MIP Presolve modified 8124 coefficients.
Aggregator did 4 substitutions.
Reduced MIP has 8488 rows, 8464 columns, and 180316 nonzeros.
Reduced MIP has 8237 binaries, 114 generals, 0 SOSs, and 0 indicators.
Presolve time = 0.05 sec. (69.18 ticks)
Probing time = 0.08 sec. (2.69 ticks)
Tried aggregator 2 times.
Detecting symmetries...
MIP Presolve modified 6649 coefficients.
Aggregator did 44 substitutions.
Reduced MIP has 8444 rows, 8420 columns, and 180228 nonzeros.
Reduced MIP has 8237 binaries, 183 generals, 0 SOSs, and 0 indicators.
Presolve time = 0.08 sec. (102.88 ticks)
Probing time = 0.13 sec. (2.82 ticks)
MIP emphasis: best bound.
MIP search method: dynamic search.
Parallel mode: deterministic, using up to 8 threads.
Root relaxation solution time = 0.18 sec. (206.49 ticks)

        Nodes                                         Cuts/
   Node  Left     Objective  IInf  Best Integer    Best Bound    ItCnt     Gap

*     0+    0                         8124.8957        0.0000           100.00%
*     0+    0                         3916.5463        0.0000           100.00%
*     0+    0                         3916.5456        0.0000           100.00%
*     0+    0                         3916.5450        0.0000           100.00%
*     0+    0                         3916.0000        0.0000           100.00%
      0     0        0.0000    26     3916.0000        0.0000      406  100.00%
*     0+    0                           38.1106        0.0000           100.00%
*     0+    0                            0.0711        0.0000            99.98%
*     0+    0                            0.0632        0.0000            99.98%
      0     0  -1.00000e+75     0        0.0632        0.0000      406   99.98%

Repeating presolve.
Tried aggregator 1 time.
MIP Presolve eliminated 98 rows and 8128 columns.
MIP Presolve modified 8124 coefficients.
Reduced MIP has 8346 rows, 292 columns, and 170180 nonzeros.
Reduced MIP has 111 binaries, 181 generals, 0 SOSs, and 0 indicators.
Presolve time = 0.04 sec. (61.97 ticks)
Probing time = 0.04 sec. (2.09 ticks)
Tried aggregator 1 time.
Detecting symmetries...
Reduced MIP has 8346 rows, 292 columns, and 170180 nonzeros.
Reduced MIP has 111 binaries, 181 generals, 0 SOSs, and 0 indicators.
Presolve time = 0.04 sec. (46.86 ticks)
Represolve time = 0.13 sec. (129.23 ticks)
Probing time = 0.07 sec. (2.09 ticks)
MIP emphasis: best bound.
MIP search method: dynamic search.
Parallel mode: deterministic, using up to 8 threads.
Root relaxation solution time = 0.14 sec. (160.03 ticks)

        Nodes                                         Cuts/
   Node  Left     Objective  IInf  Best Integer    Best Bound    ItCnt     Gap

*     0+    0                            0.0632        0.0000            99.98%
      0     0        0.0127    13        0.0632        0.0127      678   79.94%
      0     2        0.0127    13        0.0632        0.0127      678   79.94%
Elapsed time = 1.82 sec. (2166.94 ticks, tree = 0.02 MB, solutions = 7)
      1     3        0.0174    11        0.0632        0.0174      891   72.42%
*     2+    2                            0.0632        0.0174            72.41%
*     2+    2                            0.0553        0.0174            68.48%
      4     3        0.0185    43        0.0553        0.0174      797   68.48%
     13    12        0.0253     6        0.0553        0.0174     1331   68.48%
     25    14        0.0380     4        0.0553        0.0190     1463   65.62%
     47    23        0.0364    36        0.0553        0.0190     1801   65.62%
     63    31        0.0253    52        0.0553        0.0222     2663   59.88%
    104    87        0.0342    31        0.0553        0.0232     6257   58.01%
    162   124        0.0380     7        0.0553        0.0238     8259   57.02%
    229   177        0.0409    45        0.0553        0.0253    10871   54.34%
    543   406        0.0443     9        0.0553        0.0352    23045   36.38%
Elapsed time = 5.72 sec. (5759.77 ticks, tree = 0.38 MB, solutions = 12)
    891   665        0.0459     3        0.0553        0.0382    37399   31.02%
   1262  1050        0.0490     6        0.0553        0.0406    55925   26.60%
   1624  1407        0.0501    28        0.0553        0.0422    75196   23.68%
   2021  1610        0.0457    53        0.0553        0.0437    84385   21.02%

Implied bound cuts applied:  0
Disjunctive cuts applied:  0
Cone linearizations applied:  0

Root node processing (before b&c):
  Real time             =    1.81 sec. (2159.40 ticks)
Parallel b&c, 8 threads:
  Real time             =    9.17 sec. (7851.84 ticks)
  Sync time (average)   =    2.66 sec.
  Wait time (average)   =    0.00 sec.
                          ------------
Total (root+branch&cut) =   10.97 sec. (10011.24 ticks)
Gap: 19.86%
Upper bound: 0.0553338
Lower bound: 0.0443453
End of CPLEX run. Time: 10.9771 seconds

===== New CPLEX run =====
Instance: /home/yorig/tuner/mpils-tests/instances/miplib/medium-1/mushroom-best.mps
Config: /scratch/yorig/mpils-results-grid-ticks-10000-2proc-no-mip-start/medium-1/2proc/seed-3/7_mushroom-best_seed-3_20260501_224031/expansion/config_param_CPXPARAM_MIP_Strategy_HeuristicFreq_40_iter_3.prm
========================

Selected objective sense:  MINIMIZE
Selected objective  name:  obj
Selected RHS        name:  rhs
Selected bound      name:  bnd
Version identifier: 22.1.2.0 | 2024-11-26 | 0edbb82fd
CPXPARAM_Threads                                 8
CPXPARAM_Parallel                                1
CPXPARAM_MIP_Cuts_Cliques                        -1
CPXPARAM_MIP_Cuts_Covers                         -1
CPXPARAM_MIP_Strategy_VariableSelect             2
CPXPARAM_MIP_Strategy_PresolveNode               -1
CPXPARAM_MIP_Cuts_Implied                        1
CPXPARAM_MIP_Limits_GomoryCand                   800
CPXPARAM_MIP_Cuts_Gomory                         -1
CPXPARAM_MIP_Cuts_PathCut                        -1
CPXPARAM_MIP_Cuts_MIRCut                         -1
CPXPARAM_MIP_Cuts_Disjunctive                    2
CPXPARAM_Emphasis_MIP                            3
CPXPARAM_MIP_Strategy_HeuristicFreq              40
CPXPARAM_DetTimeLimit                            10000
Found incumbent of value 8124.895732 after 0.00 sec. (1.54 ticks)
Tried aggregator 2 times.
MIP Presolve eliminated 88 rows and 0 columns.
MIP Presolve modified 8124 coefficients.
Aggregator did 4 substitutions.
Reduced MIP has 8488 rows, 8464 columns, and 180316 nonzeros.
Reduced MIP has 8237 binaries, 114 generals, 0 SOSs, and 0 indicators.
Presolve time = 0.05 sec. (69.18 ticks)
Probing time = 0.16 sec. (2.69 ticks)
Tried aggregator 2 times.
Detecting symmetries...
MIP Presolve modified 6649 coefficients.
Aggregator did 44 substitutions.
Reduced MIP has 8444 rows, 8420 columns, and 180228 nonzeros.
Reduced MIP has 8237 binaries, 183 generals, 0 SOSs, and 0 indicators.
Presolve time = 0.08 sec. (102.88 ticks)
Probing time = 0.19 sec. (2.82 ticks)
MIP emphasis: best bound.
MIP search method: dynamic search.
Parallel mode: deterministic, using up to 8 threads.
Root relaxation solution time = 0.15 sec. (206.49 ticks)

        Nodes                                         Cuts/
   Node  Left     Objective  IInf  Best Integer    Best Bound    ItCnt     Gap

*     0+    0                         8124.8957        0.0000           100.00%
*     0+    0                         3916.5463        0.0000           100.00%
*     0+    0                         3916.5456        0.0000           100.00%
*     0+    0                         3916.5450        0.0000           100.00%
*     0+    0                         3916.0000        0.0000           100.00%
      0     0        0.0000    26     3916.0000        0.0000      406  100.00%
*     0+    0                           38.1106        0.0000           100.00%
*     0+    0                            0.0711        0.0000            99.98%
*     0+    0                            0.0632        0.0000            99.98%
      0     0  -1.00000e+75     0        0.0632        0.0000      406   99.98%

Repeating presolve.
Tried aggregator 1 time.
MIP Presolve eliminated 98 rows and 8128 columns.
MIP Presolve modified 8124 coefficients.
Reduced MIP has 8346 rows, 292 columns, and 170180 nonzeros.
Reduced MIP has 111 binaries, 181 generals, 0 SOSs, and 0 indicators.
Presolve time = 0.04 sec. (61.97 ticks)
Probing time = 0.04 sec. (2.09 ticks)
Tried aggregator 1 time.
Detecting symmetries...
Reduced MIP has 8346 rows, 292 columns, and 170180 nonzeros.
Reduced MIP has 111 binaries, 181 generals, 0 SOSs, and 0 indicators.
Presolve time = 0.04 sec. (46.86 ticks)
Represolve time = 0.13 sec. (129.23 ticks)
Probing time = 0.17 sec. (2.09 ticks)
MIP emphasis: best bound.
MIP search method: dynamic search.
Parallel mode: deterministic, using up to 8 threads.
Root relaxation solution time = 0.14 sec. (160.03 ticks)

        Nodes                                         Cuts/
   Node  Left     Objective  IInf  Best Integer    Best Bound    ItCnt     Gap

*     0+    0                            0.0632        0.0000            99.98%
      0     0        0.0127    13        0.0632        0.0127      678   79.94%
      0     2        0.0127    13        0.0632        0.0127      678   79.94%
Elapsed time = 2.34 sec. (2166.94 ticks, tree = 0.02 MB, solutions = 7)
      1     3        0.0174    11        0.0632        0.0174      891   72.42%
*     2+    2                            0.0632        0.0174            72.41%
*     2+    2                            0.0553        0.0174            68.48%
      4     3        0.0185    43        0.0553        0.0174      797   68.48%
     13    12        0.0253     6        0.0553        0.0174     1331   68.48%
     25    14        0.0380     4        0.0553        0.0190     1463   65.62%
     47    23        0.0364    36        0.0553        0.0190     1801   65.62%
     63    31        0.0253    52        0.0553        0.0222     2663   59.88%
    107    87        0.0342    31        0.0553        0.0238     6257   57.08%
    169   129        0.0380    17        0.0553        0.0238     8509   57.02%
    250   204        0.0396    15        0.0553        0.0253    12307   54.34%
    592   490        0.0396    17        0.0553        0.0359    27340   35.05%
Elapsed time = 6.27 sec. (5758.05 ticks, tree = 0.48 MB, solutions = 12)
    947   798        0.0411     5        0.0553        0.0393    44441   29.02%
   1341  1175        0.0459    15        0.0553        0.0411    63313   25.65%
   1754  1526        0.0490    37        0.0553        0.0428    78856   22.70%
   2175  1868        0.0451    11        0.0553        0.0443    94339   19.92%

Implied bound cuts applied:  0
Disjunctive cuts applied:  0
Cone linearizations applied:  0

Root node processing (before b&c):
  Real time             =    1.98 sec. (2159.40 ticks)
Parallel b&c, 8 threads:
  Real time             =    9.39 sec. (7859.48 ticks)
  Sync time (average)   =    1.91 sec.
  Wait time (average)   =    0.00 sec.
                          ------------
Total (root+branch&cut) =   11.36 sec. (10018.88 ticks)
Gap: 18.43%
Upper bound: 0.0553338
Lower bound: 0.0451365
End of CPLEX run. Time: 11.3663 seconds
